2131 3139 2400 2366 5543 1627 5022 30 5240 316 13 64 585 837 1106 1358 1879 2148 2417 2669 2921 2938 3190 3425 3442 3459 3711 3980 4232 4501 4753 4988 5274 5509 5795 282 820 1072 1324 2097 3408 47 265 299 534 551 568 786 803 1055 1089 1307 1341 1576 1593 1610 1828 1845 1862 2114 2349 2383 2618 2635 2652 2887 2904 3156 3173 3660 3677 3694 3929 3946 3963 4181 4198 4215 4450 4467 4484 4702 4719 4736 4971 5005 5223 5257 5492 5526 
